c Arquivo convertido de plat362.mtx
p edge 362 2712
e 1 2
e 1 4
e 1 131
e 1 133
e 1 134
e 1 246
e 1 247
e 1 248
e 2 5
e 2 131
e 2 132
e 2 134
e 2 135
e 2 246
e 2 247
e 2 248
e 2 249
e 3 4
e 3 9
e 3 133
e 3 138
e 3 139
e 3 247
e 3 250
e 3 251
e 4 5
e 4 10
e 4 131
e 4 133
e 4 134
e 4 139
e 4 140
e 4 247
e 4 248
e 4 250
e 4 251
e 4 252
e 5 6
e 5 11
e 5 131
e 5 132
e 5 134
e 5 135
e 5 140
e 5 141
e 5 247
e 5 248
e 5 249
e 5 251
e 5 252
e 5 253
e 6 12
e 6 132
e 6 135
e 6 136
e 6 141
e 6 142
e 6 248
e 6 249
e 6 252
e 6 253
e 6 254
e 7 8
e 7 14
e 7 137
e 7 144
e 7 255
e 7 256
e 8 9
e 8 15
e 8 137
e 8 138
e 8 144
e 8 145
e 8 250
e 8 255
e 8 256
e 8 257
e 9 10
e 9 16
e 9 133
e 9 138
e 9 139
e 9 145
e 9 146
e 9 250
e 9 251
e 9 256
e 9 257
e 9 258
e 10 11
e 10 17
e 10 133
e 10 134
e 10 139
e 10 140
e 10 146
e 10 147
e 10 250
e 10 251
e 10 252
e 10 257
e 10 258
e 10 259
e 11 12
e 11 18
e 11 134
e 11 135
e 11 140
e 11 141
e 11 147
e 11 148
e 11 251
e 11 252
e 11 253
e 11 258
e 11 259
e 11 260
e 12 13
e 12 19
e 12 135
e 12 136
e 12 141
e 12 142
e 12 148
e 12 149
e 12 252
e 12 253
e 12 254
e 12 259
e 12 260
e 12 261
e 13 20
e 13 136
e 13 142
e 13 143
e 13 149
e 13 253
e 13 254
e 13 260
e 13 261
e 14 15
e 14 23
e 14 137
e 14 144
e 14 151
e 14 152
e 14 255
e 14 256
e 14 262
e 14 263
e 15 16
e 15 24
e 15 137
e 15 138
e 15 144
e 15 145
e 15 152
e 15 153
e 15 255
e 15 256
e 15 257
e 15 262
e 15 263
e 15 264
e 16 17
e 16 25
e 16 138
e 16 139
e 16 145
e 16 146
e 16 153
e 16 154
e 16 256
e 16 257
e 16 258
e 16 263
e 16 264
e 16 265
e 17 18
e 17 26
e 17 139
e 17 140
e 17 146
e 17 147
e 17 154
e 17 155
e 17 257
e 17 258
e 17 259
e 17 264
e 17 265
e 17 266
e 18 19
e 18 27
e 18 140
e 18 141
e 18 147
e 18 148
e 18 155
e 18 156
e 18 258
e 18 259
e 18 260
e 18 265
e 18 266
e 18 267
e 19 20
e 19 28
e 19 141
e 19 142
e 19 148
e 19 149
e 19 156
e 19 157
e 19 259
e 19 260
e 19 261
e 19 266
e 19 267
e 19 268
e 20 29
e 20 142
e 20 143
e 20 149
e 20 157
e 20 260
e 20 261
e 20 267
e 20 268
e 21 22
e 21 31
e 21 150
e 21 158
e 21 159
e 21 269
e 21 270
e 22 23
e 22 32
e 22 150
e 22 151
e 22 159
e 22 160
e 22 262
e 22 269
e 22 270
e 22 271
e 23 24
e 23 33
e 23 144
e 23 151
e 23 152
e 23 160
e 23 161
e 23 262
e 23 263
e 23 270
e 23 271
e 23 272
e 24 25
e 24 34
e 24 144
e 24 145
e 24 152
e 24 153
e 24 161
e 24 162
e 24 262
e 24 263
e 24 264
e 24 271
e 24 272
e 24 273
e 25 26
e 25 35
e 25 145
e 25 146
e 25 153
e 25 154
e 25 162
e 25 163
e 25 263
e 25 264
e 25 265
e 25 272
e 25 273
e 25 274
e 26 27
e 26 36
e 26 146
e 26 147
e 26 154
e 26 155
e 26 163
e 26 164
e 26 264
e 26 265
e 26 266
e 26 273
e 26 274
e 26 275
e 27 28
e 27 37
e 27 147
e 27 148
e 27 155
e 27 156
e 27 164
e 27 165
e 27 265
e 27 266
e 27 267
e 27 274
e 27 275
e 27 276
e 28 29
e 28 38
e 28 148
e 28 149
e 28 156
e 28 157
e 28 165
e 28 166
e 28 266
e 28 267
e 28 268
e 28 275
e 28 276
e 28 277
e 29 39
e 29 149
e 29 157
e 29 166
e 29 167
e 29 267
e 29 268
e 29 276
e 29 277
e 30 31
e 30 41
e 30 158
e 30 168
e 30 269
e 30 278
e 30 279
e 31 32
e 31 42
e 31 150
e 31 158
e 31 159
e 31 168
e 31 169
e 31 269
e 31 270
e 31 278
e 31 279
e 31 280
e 32 33
e 32 43
e 32 150
e 32 151
e 32 159
e 32 160
e 32 169
e 32 170
e 32 269
e 32 270
e 32 271
e 32 279
e 32 280
e 32 281
e 33 34
e 33 44
e 33 151
e 33 152
e 33 160
e 33 161
e 33 170
e 33 171
e 33 270
e 33 271
e 33 272
e 33 280
e 33 281
e 33 282
e 34 35
e 34 45
e 34 152
e 34 153
e 34 161
e 34 162
e 34 171
e 34 172
e 34 271
e 34 272
e 34 273
e 34 281
e 34 282
e 34 283
e 35 36
e 35 46
e 35 153
e 35 154
e 35 162
e 35 163
e 35 172
e 35 173
e 35 272
e 35 273
e 35 274
e 35 282
e 35 283
e 35 284
e 36 37
e 36 47
e 36 154
e 36 155
e 36 163
e 36 164
e 36 173
e 36 174
e 36 273
e 36 274
e 36 275
e 36 283
e 36 284
e 36 285
e 37 38
e 37 48
e 37 155
e 37 156
e 37 164
e 37 165
e 37 174
e 37 175
e 37 274
e 37 275
e 37 276
e 37 284
e 37 285
e 37 286
e 38 39
e 38 49
e 38 156
e 38 157
e 38 165
e 38 166
e 38 175
e 38 176
e 38 275
e 38 276
e 38 277
e 38 285
e 38 286
e 38 287
e 39 40
e 39 50
e 39 157
e 39 166
e 39 167
e 39 176
e 39 177
e 39 276
e 39 277
e 39 286
e 39 287
e 39 288
e 40 51
e 40 167
e 40 177
e 40 277
e 40 287
e 40 288
e 41 42
e 41 52
e 41 158
e 41 168
e 41 178
e 41 278
e 41 279
e 41 289
e 41 290
e 42 43
e 42 53
e 42 158
e 42 159
e 42 168
e 42 169
e 42 178
e 42 179
e 42 278
e 42 279
e 42 280
e 42 289
e 42 290
e 42 291
e 43 44
e 43 54
e 43 159
e 43 160
e 43 169
e 43 170
e 43 179
e 43 180
e 43 279
e 43 280
e 43 281
e 43 290
e 43 291
e 43 292
e 44 45
e 44 55
e 44 160
e 44 161
e 44 170
e 44 171
e 44 180
e 44 181
e 44 280
e 44 281
e 44 282
e 44 291
e 44 292
e 44 293
e 45 46
e 45 56
e 45 161
e 45 162
e 45 171
e 45 172
e 45 181
e 45 182
e 45 281
e 45 282
e 45 283
e 45 292
e 45 293
e 45 294
e 46 47
e 46 57
e 46 162
e 46 163
e 46 172
e 46 173
e 46 182
e 46 183
e 46 282
e 46 283
e 46 284
e 46 293
e 46 294
e 46 295
e 47 48
e 47 58
e 47 163
e 47 164
e 47 173
e 47 174
e 47 183
e 47 184
e 47 283
e 47 284
e 47 285
e 47 294
e 47 295
e 47 296
e 48 49
e 48 59
e 48 164
e 48 165
e 48 174
e 48 175
e 48 184
e 48 185
e 48 284
e 48 285
e 48 286
e 48 295
e 48 296
e 48 297
e 49 50
e 49 60
e 49 165
e 49 166
e 49 175
e 49 176
e 49 185
e 49 186
e 49 285
e 49 286
e 49 287
e 49 296
e 49 297
e 49 298
e 50 51
e 50 61
e 50 166
e 50 167
e 50 176
e 50 177
e 50 186
e 50 187
e 50 286
e 50 287
e 50 288
e 50 297
e 50 298
e 50 299
e 51 62
e 51 167
e 51 177
e 51 187
e 51 188
e 51 287
e 51 288
e 51 298
e 51 299
e 52 53
e 52 168
e 52 178
e 52 289
e 52 290
e 52 300
e 53 54
e 53 64
e 53 168
e 53 169
e 53 178
e 53 179
e 53 189
e 53 289
e 53 290
e 53 291
e 53 300
e 53 301
e 54 55
e 54 65
e 54 169
e 54 170
e 54 179
e 54 180
e 54 189
e 54 190
e 54 290
e 54 291
e 54 292
e 54 300
e 54 301
e 54 302
e 55 56
e 55 66
e 55 170
e 55 171
e 55 180
e 55 181
e 55 190
e 55 191
e 55 291
e 55 292
e 55 293
e 55 301
e 55 302
e 55 303
e 56 57
e 56 67
e 56 171
e 56 172
e 56 181
e 56 182
e 56 191
e 56 192
e 56 292
e 56 293
e 56 294
e 56 302
e 56 303
e 56 304
e 57 58
e 57 68
e 57 172
e 57 173
e 57 182
e 57 183
e 57 192
e 57 193
e 57 293
e 57 294
e 57 295
e 57 303
e 57 304
e 57 305
e 58 59
e 58 69
e 58 173
e 58 174
e 58 183
e 58 184
e 58 193
e 58 194
e 58 294
e 58 295
e 58 296
e 58 304
e 58 305
e 58 306
e 59 60
e 59 70
e 59 174
e 59 175
e 59 184
e 59 185
e 59 194
e 59 195
e 59 295
e 59 296
e 59 297
e 59 305
e 59 306
e 59 307
e 60 61
e 60 71
e 60 175
e 60 176
e 60 185
e 60 186
e 60 195
e 60 196
e 60 296
e 60 297
e 60 298
e 60 306
e 60 307
e 60 308
e 61 62
e 61 72
e 61 176
e 61 177
e 61 186
e 61 187
e 61 196
e 61 197
e 61 297
e 61 298
e 61 299
e 61 307
e 61 308
e 61 309
e 62 63
e 62 73
e 62 177
e 62 187
e 62 188
e 62 197
e 62 198
e 62 298
e 62 299
e 62 308
e 62 309
e 62 310
e 63 74
e 63 188
e 63 198
e 63 299
e 63 309
e 63 310
e 64 65
e 64 178
e 64 179
e 64 189
e 64 300
e 64 301
e 65 66
e 65 179
e 65 180
e 65 189
e 65 190
e 65 300
e 65 301
e 65 302
e 65 311
e 66 67
e 66 75
e 66 180
e 66 181
e 66 190
e 66 191
e 66 199
e 66 301
e 66 302
e 66 303
e 66 311
e 66 312
e 67 68
e 67 76
e 67 181
e 67 182
e 67 191
e 67 192
e 67 199
e 67 200
e 67 302
e 67 303
e 67 304
e 67 311
e 67 312
e 67 313
e 68 69
e 68 77
e 68 182
e 68 183
e 68 192
e 68 193
e 68 200
e 68 201
e 68 303
e 68 304
e 68 305
e 68 312
e 68 313
e 68 314
e 69 70
e 69 78
e 69 183
e 69 184
e 69 193
e 69 194
e 69 201
e 69 202
e 69 304
e 69 305
e 69 306
e 69 313
e 69 314
e 69 315
e 70 71
e 70 79
e 70 184
e 70 185
e 70 194
e 70 195
e 70 202
e 70 203
e 70 305
e 70 306
e 70 307
e 70 314
e 70 315
e 70 316
e 71 72
e 71 80
e 71 185
e 71 186
e 71 195
e 71 196
e 71 203
e 71 204
e 71 306
e 71 307
e 71 308
e 71 315
e 71 316
e 71 317
e 72 73
e 72 81
e 72 186
e 72 187
e 72 196
e 72 197
e 72 204
e 72 205
e 72 307
e 72 308
e 72 309
e 72 316
e 72 317
e 72 318
e 73 74
e 73 82
e 73 187
e 73 188
e 73 197
e 73 198
e 73 205
e 73 206
e 73 308
e 73 309
e 73 310
e 73 317
e 73 318
e 73 319
e 74 83
e 74 188
e 74 198
e 74 206
e 74 207
e 74 309
e 74 310
e 74 318
e 74 319
e 75 76
e 75 190
e 75 191
e 75 199
e 75 311
e 75 312
e 75 320
e 76 77
e 76 85
e 76 191
e 76 192
e 76 199
e 76 200
e 76 208
e 76 311
e 76 312
e 76 313
e 76 320
e 76 321
e 77 78
e 77 86
e 77 192
e 77 193
e 77 200
e 77 201
e 77 208
e 77 209
e 77 312
e 77 313
e 77 314
e 77 320
e 77 321
e 77 322
e 78 79
e 78 87
e 78 193
e 78 194
e 78 201
e 78 202
e 78 209
e 78 210
e 78 313
e 78 314
e 78 315
e 78 321
e 78 322
e 78 323
e 79 80
e 79 88
e 79 194
e 79 195
e 79 202
e 79 203
e 79 210
e 79 211
e 79 314
e 79 315
e 79 316
e 79 322
e 79 323
e 79 324
e 80 81
e 80 89
e 80 195
e 80 196
e 80 203
e 80 204
e 80 211
e 80 212
e 80 315
e 80 316
e 80 317
e 80 323
e 80 324
e 80 325
e 81 82
e 81 90
e 81 196
e 81 197
e 81 204
e 81 205
e 81 212
e 81 213
e 81 316
e 81 317
e 81 318
e 81 324
e 81 325
e 81 326
e 82 83
e 82 91
e 82 197
e 82 198
e 82 205
e 82 206
e 82 213
e 82 214
e 82 317
e 82 318
e 82 319
e 82 325
e 82 326
e 82 327
e 83 84
e 83 92
e 83 198
e 83 206
e 83 207
e 83 214
e 83 318
e 83 319
e 83 326
e 83 327
e 84 319
e 84 327
e 85 86
e 85 93
e 85 199
e 85 200
e 85 208
e 85 215
e 85 320
e 85 321
e 85 328
e 85 329
e 86 87
e 86 94
e 86 200
e 86 201
e 86 208
e 86 209
e 86 215
e 86 216
e 86 320
e 86 321
e 86 322
e 86 328
e 86 329
e 86 330
e 87 88
e 87 95
e 87 201
e 87 202
e 87 209
e 87 210
e 87 216
e 87 217
e 87 321
e 87 322
e 87 323
e 87 329
e 87 330
e 87 331
e 88 89
e 88 96
e 88 202
e 88 203
e 88 210
e 88 211
e 88 217
e 88 218
e 88 322
e 88 323
e 88 324
e 88 330
e 88 331
e 88 332
e 89 90
e 89 97
e 89 203
e 89 204
e 89 211
e 89 212
e 89 218
e 89 219
e 89 323
e 89 324
e 89 325
e 89 331
e 89 332
e 89 333
e 90 91
e 90 98
e 90 204
e 90 205
e 90 212
e 90 213
e 90 219
e 90 220
e 90 324
e 90 325
e 90 326
e 90 332
e 90 333
e 90 334
e 91 92
e 91 99
e 91 205
e 91 206
e 91 213
e 91 214
e 91 220
e 91 325
e 91 326
e 91 327
e 91 333
e 91 334
e 92 206
e 92 207
e 92 214
e 92 326
e 92 327
e 92 334
e 93 94
e 93 101
e 93 208
e 93 215
e 93 221
e 93 222
e 93 328
e 93 329
e 93 335
e 93 336
e 94 95
e 94 102
e 94 208
e 94 209
e 94 215
e 94 216
e 94 222
e 94 223
e 94 328
e 94 329
e 94 330
e 94 335
e 94 336
e 94 337
e 95 96
e 95 103
e 95 209
e 95 210
e 95 216
e 95 217
e 95 223
e 95 224
e 95 329
e 95 330
e 95 331
e 95 336
e 95 337
e 95 338
e 96 97
e 96 104
e 96 210
e 96 211
e 96 217
e 96 218
e 96 224
e 96 225
e 96 330
e 96 331
e 96 332
e 96 337
e 96 338
e 96 339
e 97 98
e 97 105
e 97 211
e 97 212
e 97 218
e 97 219
e 97 225
e 97 226
e 97 331
e 97 332
e 97 333
e 97 338
e 97 339
e 97 340
e 98 99
e 98 106
e 98 212
e 98 213
e 98 219
e 98 220
e 98 226
e 98 227
e 98 332
e 98 333
e 98 334
e 98 339
e 98 340
e 98 341
e 99 107
e 99 213
e 99 214
e 99 220
e 99 227
e 99 228
e 99 333
e 99 334
e 99 340
e 99 341
e 100 101
e 100 110
e 100 221
e 100 229
e 100 230
e 100 335
e 100 342
e 100 343
e 101 102
e 101 111
e 101 215
e 101 221
e 101 222
e 101 230
e 101 231
e 101 335
e 101 336
e 101 342
e 101 343
e 101 344
e 102 103
e 102 112
e 102 215
e 102 216
e 102 222
e 102 223
e 102 231
e 102 232
e 102 335
e 102 336
e 102 337
e 102 343
e 102 344
e 102 345
e 103 104
e 103 113
e 103 216
e 103 217
e 103 223
e 103 224
e 103 232
e 103 233
e 103 336
e 103 337
e 103 338
e 103 344
e 103 345
e 103 346
e 104 105
e 104 114
e 104 217
e 104 218
e 104 224
e 104 225
e 104 233
e 104 234
e 104 337
e 104 338
e 104 339
e 104 345
e 104 346
e 104 347
e 105 106
e 105 115
e 105 218
e 105 219
e 105 225
e 105 226
e 105 234
e 105 235
e 105 338
e 105 339
e 105 340
e 105 346
e 105 347
e 105 348
e 106 107
e 106 116
e 106 219
e 106 220
e 106 226
e 106 227
e 106 235
e 106 236
e 106 339
e 106 340
e 106 341
e 106 347
e 106 348
e 106 349
e 107 108
e 107 117
e 107 220
e 107 227
e 107 228
e 107 236
e 107 237
e 107 340
e 107 341
e 107 348
e 107 349
e 107 350
e 108 118
e 108 228
e 108 237
e 108 341
e 108 349
e 108 350
e 109 110
e 109 119
e 109 229
e 109 238
e 109 342
e 109 351
e 109 352
e 110 111
e 110 120
e 110 221
e 110 229
e 110 230
e 110 238
e 110 239
e 110 342
e 110 343
e 110 351
e 110 352
e 110 353
e 111 112
e 111 121
e 111 221
e 111 222
e 111 230
e 111 231
e 111 239
e 111 342
e 111 343
e 111 344
e 111 352
e 111 353
e 112 113
e 112 222
e 112 223
e 112 231
e 112 232
e 112 343
e 112 344
e 112 345
e 112 353
e 112 354
e 113 114
e 113 122
e 113 223
e 113 224
e 113 232
e 113 233
e 113 240
e 113 344
e 113 345
e 113 346
e 113 354
e 113 355
e 114 115
e 114 123
e 114 224
e 114 225
e 114 233
e 114 234
e 114 240
e 114 241
e 114 345
e 114 346
e 114 347
e 114 354
e 114 355
e 114 356
e 115 116
e 115 124
e 115 225
e 115 226
e 115 234
e 115 235
e 115 241
e 115 242
e 115 346
e 115 347
e 115 348
e 115 355
e 115 356
e 115 357
e 116 117
e 116 125
e 116 226
e 116 227
e 116 235
e 116 236
e 116 242
e 116 243
e 116 347
e 116 348
e 116 349
e 116 356
e 116 357
e 116 358
e 117 118
e 117 126
e 117 227
e 117 228
e 117 236
e 117 237
e 117 243
e 117 348
e 117 349
e 117 350
e 117 357
e 117 358
e 118 228
e 118 237
e 118 349
e 118 350
e 118 358
e 119 120
e 119 127
e 119 229
e 119 238
e 119 244
e 119 351
e 119 352
e 119 359
e 119 360
e 120 121
e 120 128
e 120 229
e 120 230
e 120 238
e 120 239
e 120 244
e 120 351
e 120 352
e 120 353
e 120 359
e 120 360
e 121 230
e 121 231
e 121 239
e 121 352
e 121 353
e 121 360
e 122 123
e 122 232
e 122 233
e 122 240
e 122 354
e 122 355
e 122 361
e 123 124
e 123 129
e 123 233
e 123 234
e 123 240
e 123 241
e 123 245
e 123 354
e 123 355
e 123 356
e 123 361
e 123 362
e 124 125
e 124 130
e 124 234
e 124 235
e 124 241
e 124 242
e 124 245
e 124 355
e 124 356
e 124 357
e 124 361
e 124 362
e 125 126
e 125 235
e 125 236
e 125 242
e 125 243
e 125 356
e 125 357
e 125 358
e 125 362
e 126 236
e 126 237
e 126 243
e 126 357
e 126 358
e 127 128
e 127 238
e 127 244
e 127 359
e 127 360
e 128 238
e 128 239
e 128 244
e 128 359
e 128 360
e 129 130
e 129 240
e 129 241
e 129 245
e 129 361
e 129 362
e 130 241
e 130 242
e 130 245
e 130 361
e 130 362
e 131 132
e 131 133
e 131 134
e 131 135
e 131 246
e 131 247
e 131 248
e 132 134
e 132 135
e 132 136
e 132 246
e 132 248
e 133 134
e 133 138
e 133 139
e 133 140
e 133 247
e 133 250
e 133 251
e 134 135
e 134 139
e 134 140
e 134 141
e 134 247
e 134 248
e 134 251
e 134 252
e 135 136
e 135 140
e 135 141
e 135 142
e 135 248
e 135 249
e 135 252
e 135 253
e 136 141
e 136 142
e 136 143
e 136 249
e 136 253
e 137 138
e 137 144
e 137 145
e 137 255
e 137 256
e 138 139
e 138 144
e 138 145
e 138 146
e 138 250
e 138 256
e 138 257
e 139 140
e 139 145
e 139 146
e 139 147
e 139 250
e 139 251
e 139 257
e 139 258
e 140 141
e 140 146
e 140 147
e 140 148
e 140 251
e 140 252
e 140 258
e 140 259
e 141 142
e 141 147
e 141 148
e 141 149
e 141 252
e 141 253
e 141 259
e 141 260
e 142 143
e 142 148
e 142 149
e 142 253
e 142 254
e 142 260
e 142 261
e 143 149
e 143 254
e 143 261
e 144 145
e 144 151
e 144 152
e 144 153
e 144 255
e 144 256
e 144 262
e 144 263
e 145 146
e 145 152
e 145 153
e 145 154
e 145 256
e 145 257
e 145 263
e 145 264
e 146 147
e 146 153
e 146 154
e 146 155
e 146 257
e 146 258
e 146 264
e 146 265
e 147 148
e 147 154
e 147 155
e 147 156
e 147 258
e 147 259
e 147 265
e 147 266
e 148 149
e 148 155
e 148 156
e 148 157
e 148 259
e 148 260
e 148 266
e 148 267
e 149 156
e 149 157
e 149 260
e 149 261
e 149 267
e 149 268
e 150 151
e 150 158
e 150 159
e 150 160
e 150 269
e 150 270
e 151 152
e 151 159
e 151 160
e 151 161
e 151 262
e 151 270
e 151 271
e 152 153
e 152 160
e 152 161
e 152 162
e 152 262
e 152 263
e 152 271
e 152 272
e 153 154
e 153 161
e 153 162
e 153 163
e 153 263
e 153 264
e 153 272
e 153 273
e 154 155
e 154 162
e 154 163
e 154 164
e 154 264
e 154 265
e 154 273
e 154 274
e 155 156
e 155 163
e 155 164
e 155 165
e 155 265
e 155 266
e 155 274
e 155 275
e 156 157
e 156 164
e 156 165
e 156 166
e 156 266
e 156 267
e 156 275
e 156 276
e 157 165
e 157 166
e 157 167
e 157 267
e 157 268
e 157 276
e 157 277
e 158 159
e 158 168
e 158 169
e 158 269
e 158 278
e 158 279
e 159 160
e 159 168
e 159 169
e 159 170
e 159 269
e 159 270
e 159 279
e 159 280
e 160 161
e 160 169
e 160 170
e 160 171
e 160 270
e 160 271
e 160 280
e 160 281
e 161 162
e 161 170
e 161 171
e 161 172
e 161 271
e 161 272
e 161 281
e 161 282
e 162 163
e 162 171
e 162 172
e 162 173
e 162 272
e 162 273
e 162 282
e 162 283
e 163 164
e 163 172
e 163 173
e 163 174
e 163 273
e 163 274
e 163 283
e 163 284
e 164 165
e 164 173
e 164 174
e 164 175
e 164 274
e 164 275
e 164 284
e 164 285
e 165 166
e 165 174
e 165 175
e 165 176
e 165 275
e 165 276
e 165 285
e 165 286
e 166 167
e 166 175
e 166 176
e 166 177
e 166 276
e 166 277
e 166 286
e 166 287
e 167 176
e 167 177
e 167 277
e 167 287
e 167 288
e 168 169
e 168 178
e 168 179
e 168 278
e 168 279
e 168 289
e 168 290
e 169 170
e 169 178
e 169 179
e 169 180
e 169 279
e 169 280
e 169 290
e 169 291
e 170 171
e 170 179
e 170 180
e 170 181
e 170 280
e 170 281
e 170 291
e 170 292
e 171 172
e 171 180
e 171 181
e 171 182
e 171 281
e 171 282
e 171 292
e 171 293
e 172 173
e 172 181
e 172 182
e 172 183
e 172 282
e 172 283
e 172 293
e 172 294
e 173 174
e 173 182
e 173 183
e 173 184
e 173 283
e 173 284
e 173 294
e 173 295
e 174 175
e 174 183
e 174 184
e 174 185
e 174 284
e 174 285
e 174 295
e 174 296
e 175 176
e 175 184
e 175 185
e 175 186
e 175 285
e 175 286
e 175 296
e 175 297
e 176 177
e 176 185
e 176 186
e 176 187
e 176 286
e 176 287
e 176 297
e 176 298
e 177 186
e 177 187
e 177 188
e 177 287
e 177 288
e 177 298
e 177 299
e 178 179
e 178 189
e 178 289
e 178 290
e 178 300
e 179 180
e 179 189
e 179 190
e 179 290
e 179 291
e 179 300
e 179 301
e 180 181
e 180 189
e 180 190
e 180 191
e 180 291
e 180 292
e 180 301
e 180 302
e 181 182
e 181 190
e 181 191
e 181 192
e 181 292
e 181 293
e 181 302
e 181 303
e 182 183
e 182 191
e 182 192
e 182 193
e 182 293
e 182 294
e 182 303
e 182 304
e 183 184
e 183 192
e 183 193
e 183 194
e 183 294
e 183 295
e 183 304
e 183 305
e 184 185
e 184 193
e 184 194
e 184 195
e 184 295
e 184 296
e 184 305
e 184 306
e 185 186
e 185 194
e 185 195
e 185 196
e 185 296
e 185 297
e 185 306
e 185 307
e 186 187
e 186 195
e 186 196
e 186 197
e 186 297
e 186 298
e 186 307
e 186 308
e 187 188
e 187 196
e 187 197
e 187 198
e 187 298
e 187 299
e 187 308
e 187 309
e 188 197
e 188 198
e 188 299
e 188 309
e 188 310
e 189 190
e 189 300
e 189 301
e 190 191
e 190 199
e 190 301
e 190 302
e 190 311
e 191 192
e 191 199
e 191 200
e 191 302
e 191 303
e 191 311
e 191 312
e 192 193
e 192 199
e 192 200
e 192 201
e 192 303
e 192 304
e 192 312
e 192 313
e 193 194
e 193 200
e 193 201
e 193 202
e 193 304
e 193 305
e 193 313
e 193 314
e 194 195
e 194 201
e 194 202
e 194 203
e 194 305
e 194 306
e 194 314
e 194 315
e 195 196
e 195 202
e 195 203
e 195 204
e 195 306
e 195 307
e 195 315
e 195 316
e 196 197
e 196 203
e 196 204
e 196 205
e 196 307
e 196 308
e 196 316
e 196 317
e 197 198
e 197 204
e 197 205
e 197 206
e 197 308
e 197 309
e 197 317
e 197 318
e 198 205
e 198 206
e 198 207
e 198 309
e 198 310
e 198 318
e 198 319
e 199 200
e 199 208
e 199 311
e 199 312
e 199 320
e 200 201
e 200 208
e 200 209
e 200 312
e 200 313
e 200 320
e 200 321
e 201 202
e 201 208
e 201 209
e 201 210
e 201 313
e 201 314
e 201 321
e 201 322
e 202 203
e 202 209
e 202 210
e 202 211
e 202 314
e 202 315
e 202 322
e 202 323
e 203 204
e 203 210
e 203 211
e 203 212
e 203 315
e 203 316
e 203 323
e 203 324
e 204 205
e 204 211
e 204 212
e 204 213
e 204 316
e 204 317
e 204 324
e 204 325
e 205 206
e 205 212
e 205 213
e 205 214
e 205 317
e 205 318
e 205 325
e 205 326
e 206 207
e 206 213
e 206 214
e 206 318
e 206 319
e 206 326
e 206 327
e 207 214
e 207 319
e 207 327
e 208 209
e 208 215
e 208 216
e 208 320
e 208 321
e 208 328
e 208 329
e 209 210
e 209 215
e 209 216
e 209 217
e 209 321
e 209 322
e 209 329
e 209 330
e 210 211
e 210 216
e 210 217
e 210 218
e 210 322
e 210 323
e 210 330
e 210 331
e 211 212
e 211 217
e 211 218
e 211 219
e 211 323
e 211 324
e 211 331
e 211 332
e 212 213
e 212 218
e 212 219
e 212 220
e 212 324
e 212 325
e 212 332
e 212 333
e 213 214
e 213 219
e 213 220
e 213 325
e 213 326
e 213 333
e 213 334
e 214 220
e 214 326
e 214 327
e 214 334
e 215 216
e 215 221
e 215 222
e 215 223
e 215 328
e 215 329
e 215 335
e 215 336
e 216 217
e 216 222
e 216 223
e 216 224
e 216 329
e 216 330
e 216 336
e 216 337
e 217 218
e 217 223
e 217 224
e 217 225
e 217 330
e 217 331
e 217 337
e 217 338
e 218 219
e 218 224
e 218 225
e 218 226
e 218 331
e 218 332
e 218 338
e 218 339
e 219 220
e 219 225
e 219 226
e 219 227
e 219 332
e 219 333
e 219 339
e 219 340
e 220 226
e 220 227
e 220 228
e 220 333
e 220 334
e 220 340
e 220 341
e 221 222
e 221 229
e 221 230
e 221 231
e 221 335
e 221 342
e 221 343
e 222 223
e 222 230
e 222 231
e 222 232
e 222 335
e 222 336
e 222 343
e 222 344
e 223 224
e 223 231
e 223 232
e 223 233
e 223 336
e 223 337
e 223 344
e 223 345
e 224 225
e 224 232
e 224 233
e 224 234
e 224 337
e 224 338
e 224 345
e 224 346
e 225 226
e 225 233
e 225 234
e 225 235
e 225 338
e 225 339
e 225 346
e 225 347
e 226 227
e 226 234
e 226 235
e 226 236
e 226 339
e 226 340
e 226 347
e 226 348
e 227 228
e 227 235
e 227 236
e 227 237
e 227 340
e 227 341
e 227 348
e 227 349
e 228 236
e 228 237
e 228 341
e 228 349
e 228 350
e 229 230
e 229 238
e 229 239
e 229 342
e 229 351
e 229 352
e 230 231
e 230 238
e 230 239
e 230 342
e 230 343
e 230 352
e 230 353
e 231 232
e 231 239
e 231 343
e 231 344
e 231 353
e 232 233
e 232 240
e 232 344
e 232 345
e 232 354
e 233 234
e 233 240
e 233 241
e 233 345
e 233 346
e 233 354
e 233 355
e 234 235
e 234 240
e 234 241
e 234 242
e 234 346
e 234 347
e 234 355
e 234 356
e 235 236
e 235 241
e 235 242
e 235 243
e 235 347
e 235 348
e 235 356
e 235 357
e 236 237
e 236 242
e 236 243
e 236 348
e 236 349
e 236 357
e 236 358
e 237 243
e 237 349
e 237 350
e 237 358
e 238 239
e 238 244
e 238 351
e 238 352
e 238 359
e 238 360
e 239 244
e 239 352
e 239 353
e 239 360
e 240 241
e 240 245
e 240 354
e 240 355
e 240 361
e 241 242
e 241 245
e 241 355
e 241 356
e 241 361
e 241 362
e 242 243
e 242 245
e 242 356
e 242 357
e 242 362
e 243 357
e 243 358
e 244 359
e 244 360
e 245 361
e 245 362
e 246 247
e 246 248
e 246 249
e 247 248
e 247 250
e 247 251
e 247 252
e 248 249
e 248 251
e 248 252
e 248 253
e 249 252
e 249 253
e 249 254
e 250 251
e 250 256
e 250 257
e 250 258
e 251 252
e 251 257
e 251 258
e 251 259
e 252 253
e 252 258
e 252 259
e 252 260
e 253 254
e 253 259
e 253 260
e 253 261
e 254 260
e 254 261
e 255 256
e 255 262
e 255 263
e 256 257
e 256 262
e 256 263
e 256 264
e 257 258
e 257 263
e 257 264
e 257 265
e 258 259
e 258 264
e 258 265
e 258 266
e 259 260
e 259 265
e 259 266
e 259 267
e 260 261
e 260 266
e 260 267
e 260 268
e 261 267
e 261 268
e 262 263
e 262 270
e 262 271
e 262 272
e 263 264
e 263 271
e 263 272
e 263 273
e 264 265
e 264 272
e 264 273
e 264 274
e 265 266
e 265 273
e 265 274
e 265 275
e 266 267
e 266 274
e 266 275
e 266 276
e 267 268
e 267 275
e 267 276
e 267 277
e 268 276
e 268 277
e 269 270
e 269 278
e 269 279
e 269 280
e 270 271
e 270 279
e 270 280
e 270 281
e 271 272
e 271 280
e 271 281
e 271 282
e 272 273
e 272 281
e 272 282
e 272 283
e 273 274
e 273 282
e 273 283
e 273 284
e 274 275
e 274 283
e 274 284
e 274 285
e 275 276
e 275 284
e 275 285
e 275 286
e 276 277
e 276 285
e 276 286
e 276 287
e 277 286
e 277 287
e 277 288
e 278 279
e 278 289
e 278 290
e 279 280
e 279 289
e 279 290
e 279 291
e 280 281
e 280 290
e 280 291
e 280 292
e 281 282
e 281 291
e 281 292
e 281 293
e 282 283
e 282 292
e 282 293
e 282 294
e 283 284
e 283 293
e 283 294
e 283 295
e 284 285
e 284 294
e 284 295
e 284 296
e 285 286
e 285 295
e 285 296
e 285 297
e 286 287
e 286 296
e 286 297
e 286 298
e 287 288
e 287 297
e 287 298
e 287 299
e 288 298
e 288 299
e 289 290
e 289 300
e 290 291
e 290 300
e 290 301
e 291 292
e 291 300
e 291 301
e 291 302
e 292 293
e 292 301
e 292 302
e 292 303
e 293 294
e 293 302
e 293 303
e 293 304
e 294 295
e 294 303
e 294 304
e 294 305
e 295 296
e 295 304
e 295 305
e 295 306
e 296 297
e 296 305
e 296 306
e 296 307
e 297 298
e 297 306
e 297 307
e 297 308
e 298 299
e 298 307
e 298 308
e 298 309
e 299 308
e 299 309
e 299 310
e 300 301
e 301 302
e 301 311
e 302 303
e 302 311
e 302 312
e 303 304
e 303 311
e 303 312
e 303 313
e 304 305
e 304 312
e 304 313
e 304 314
e 305 306
e 305 313
e 305 314
e 305 315
e 306 307
e 306 314
e 306 315
e 306 316
e 307 308
e 307 315
e 307 316
e 307 317
e 308 309
e 308 316
e 308 317
e 308 318
e 309 310
e 309 317
e 309 318
e 309 319
e 310 318
e 310 319
e 311 312
e 311 320
e 312 313
e 312 320
e 312 321
e 313 314
e 313 320
e 313 321
e 313 322
e 314 315
e 314 321
e 314 322
e 314 323
e 315 316
e 315 322
e 315 323
e 315 324
e 316 317
e 316 323
e 316 324
e 316 325
e 317 318
e 317 324
e 317 325
e 317 326
e 318 319
e 318 325
e 318 326
e 318 327
e 319 326
e 319 327
e 320 321
e 320 328
e 320 329
e 321 322
e 321 328
e 321 329
e 321 330
e 322 323
e 322 329
e 322 330
e 322 331
e 323 324
e 323 330
e 323 331
e 323 332
e 324 325
e 324 331
e 324 332
e 324 333
e 325 326
e 325 332
e 325 333
e 325 334
e 326 327
e 326 333
e 326 334
e 327 334
e 328 329
e 328 335
e 328 336
e 329 330
e 329 335
e 329 336
e 329 337
e 330 331
e 330 336
e 330 337
e 330 338
e 331 332
e 331 337
e 331 338
e 331 339
e 332 333
e 332 338
e 332 339
e 332 340
e 333 334
e 333 339
e 333 340
e 333 341
e 334 340
e 334 341
e 335 336
e 335 342
e 335 343
e 335 344
e 336 337
e 336 343
e 336 344
e 336 345
e 337 338
e 337 344
e 337 345
e 337 346
e 338 339
e 338 345
e 338 346
e 338 347
e 339 340
e 339 346
e 339 347
e 339 348
e 340 341
e 340 347
e 340 348
e 340 349
e 341 348
e 341 349
e 341 350
e 342 343
e 342 351
e 342 352
e 342 353
e 343 344
e 343 352
e 343 353
e 344 345
e 344 353
e 344 354
e 345 346
e 345 354
e 345 355
e 346 347
e 346 354
e 346 355
e 346 356
e 347 348
e 347 355
e 347 356
e 347 357
e 348 349
e 348 356
e 348 357
e 348 358
e 349 350
e 349 357
e 349 358
e 350 358
e 351 352
e 351 359
e 351 360
e 352 353
e 352 359
e 352 360
e 353 360
e 354 355
e 354 361
e 355 356
e 355 361
e 355 362
e 356 357
e 356 361
e 356 362
e 357 358
e 357 362
e 359 360
e 361 362
